c This is QMaxSAT 2017 based on 14.07
c This is Glucose 3.0
c This is MiniSat 2.2.0
c WARNING: for repeatability, setting FPU to use double precision
c card = mrwto, comp = 0, pmodel = 0, narr = 3, mct = 16, verb = 0
cr firstCPXsol 0 0 0
c top = 214379
c |  Number of variables:    3918                                             |
c |  Number of clauses:      341766                                           |
c |  Weight of hard clauses: 214379                                           |
c |  Number of soft clauses: 720                                              |
c |  Number of unit soft clauses: 720                                         |
c |  Maximum Cardinality (by unit): 643134       (643134      )               |
c last restart ## conflicts  :  24 2513 
o 7526 | cpuTime 0.041179 s
c Sum of weights = 214378
c A number of soft clauses remained = 240
c MRWTO encoding for Pseudo-Boolean Constraints
c sizeMax=7526
c No.0 Divisor=10	generated by pow1
c No.1 Divisor=10	generated by pow1
c No.2 Divisor=10	generated by pow1
c No.3 Divisor=10	generated by pow1
c p0= 10	p1= 10	p2= 10	p3= 10	
c number of digits = 5
c linkingVar[0].size = 10, linkingVar[1].size = 10, linkingVar[2].size = 10, linkingVar[3].size = 8, linkingVar[4].size = 1, 
c Pseudo-Boolean Constraints: 6457 variables and 59049 clauses
c Sum of weights = 214378
c A number of soft clauses remained = 240
c MRWTO encoding for Pseudo-Boolean Constraints
c sizeMax=7526
c No.0 Divisor=10	generated by pow1
c No.1 Divisor=10	generated by pow1
c No.2 Divisor=10	generated by pow1
c No.3 Divisor=10	generated by pow1
c p0= 10	p1= 10	p2= 10	p3= 10	
c number of digits = 5
c linkingVar[0].size = 10, linkingVar[1].size = 10, linkingVar[2].size = 10, linkingVar[3].size = 8, linkingVar[4].size = 1, 
c Pseudo-Boolean Constraints: 6457 variables and 59049 clauses
c Sum of weights = 214378
c A number of soft clauses remained = 240
c MRWTO encoding for Pseudo-Boolean Constraints
c sizeMax=7526
c No.0 Divisor=10	generated by pow1
c No.1 Divisor=10	generated by pow1
c No.2 Divisor=10	generated by pow1
c No.3 Divisor=10	generated by pow1
c p0= 10	p1= 10	p2= 10	p3= 10	
c number of digits = 5
c linkingVar[0].size = 10, linkingVar[1].size = 10, linkingVar[2].size = 10, linkingVar[3].size = 8, linkingVar[4].size = 1, 
c Pseudo-Boolean Constraints: 6457 variables and 59049 clauses
c last restart ## conflicts  :  307 3326 
o 6316 | cpuTime 0.140593 s
c last restart ## conflicts  :  173 3360 
o 5874 | cpuTime 0.199567 s
c last restart ## conflicts  :  145 4473 
o 5730 | cpuTime 0.210956 s
c last restart ## conflicts  :  108 2949 
o 5271 | cpuTime 0.313046 s
c last restart ## conflicts  :  45 6658 
o 5150 | cpuTime 0.320476 s
c last restart ## conflicts  :  91 1991 
o 5144 | cpuTime 1.51836 s
s OPTIMUM FOUND
cr positiVarArr: [ | 12@1(1->12) | 80@1(5->16) | 87@1(6->7) | 105@1(7->9) | 113@1(8->1) | 138@1(9->10) | 149@1(10->5) | 189@1(12->13) | 198@1(13->6) | 248@1(16->8) | 258@2(1->2) | 287@2(2->15) | 292@2(3->4) | 318@2(4->14) | 465@2(14->1) | 483@2(15->3) | 523@3(1->11) | 673@3(11->1) | ]
cr the 1-th chain: [ 1->12->13->6->7->9->10->5->16->8->1 ] (#non-depot=9) {#cumul.=10}
cr the 2-th chain: [ 1->2->15->3->4->14->1 ] (#non-depot=5) {#cumul.=15}
cr the 3-th chain: [ 1->11->1 ] (#non-depot=1) {#cumul.=16}
c Latest Answer = 0 by 7 loops
c restarts              : 8322
c conflicts             : 2329435        (17159 /sec)
c decisions             : 9647195        (0.00 % random) (71063 /sec)
c propagations          : 1070413183     (7884895 /sec)
c conflict literals     : 105279553      (53.43 % deleted)
c Memory used           : 150.00 MB
c CPU time              : 135.755 s
